c User generated cnf file
p cnf 12 39
9 -3 8 0 
6 1 -8 0 
5 6 -8 0 
11 8 -1 0 
10 9 -4 0 
6 -9 1 0 
9 -4 4 0 
1 -10 9 0 
8 -8 10 0 
4 -10 3 0 
11 4 -10 0 
8 -1 1 0 
7 -10 3 0 
11 4 -9 0 
11 -12 8 0 
6 -9 6 0 
1 -4 3 0 
4 6 -10 0 
9 -12 6 0 
10 -4 6 0 
10 -12 9 0 
5 2 -12 0 
11 10 -1 0 
7 1 -3 0 
9 -5 2 0 
3 -9 9 0 
11 -5 12 0 
10 3 -5 0 
5 -5 4 0 
9 7 -5 0 
7 -4 1 0 
5 -12 7 0 
10 1 -9 0 
4 -4 2 0 
1 2 -2 0 
6 -6 8 0 
5 -12 5 0 
8 -3 1 0 
11 -9 11 0 
